49 527
9 11 15 20 21 23 25 30 32 33 34 38 39 40 41 42 46 47 48
4 6 7 11 12 16 17 19 20 21 23 24 26 38 39 42 47
3 6 7 8 9 10 11 12 16 17 18 19 20 22 24 25 26 30 35 36 40 43 44 45 46 48
2 6 8 11 12 13 18 19 20 25 27 29 34 35 40 43 44 45 48
1 6 8 10 12 13 22 23 27 28 29 33 35 38 40 43 46
7 9 11 13 15 19 20 21 22 23 25 29 31 33 34 36 37 39 40 45
1 2 3 4 9 11 12 13 14 17 18 23 24 25 28 30 32 33 38 40 42 44 45 48
1 2 5 9 10 16 19 22 24 25 28 29 30 36 37 38 39 40 42 43 45
2 3 4 10 16 17 23 25 29 30 31 35 36 37 39 43 48
0 2 5 6 7 10 15 16 19 20 21 23 31 35 36 39 42 43 47
2 4 7 8 9 11 15 17 19 23 24 28 37 41 42 44 45 46 47 48
0 1 2 3 5 6 10 13 15 16 18 19 20 22 23 26 29 32 34 35 40
1 2 3 4 6 13 16 17 18 19 20 21 23 25 26 30 31 34 35 36 39 40 41 43 44 45 46 47 48
3 4 5 6 11 12 14 15 16 21 22 24 25 27 29 30 33 38 39 40 44 47
6 13 15 17 20 21 25 27 28 29 30 31 32 33 34 35 37 39 44 45 48
0 5 9 10 11 13 14 17 18 19 21 22 24 27 29 32 33 36 37 38 39 42 46
1 2 7 8 9 11 12 13 17 18 20 21 25 26 28 29 34 36 42 44 45 47
1 2 6 8 10 12 14 15 16 19 29 31 33 35 38 39 41 42 44 46 48
2 3 6 11 12 15 16 21 22 23 24 25 26 29 30 31 32 33 39 46
1 2 3 5 7 9 10 11 12 15 17 20 22 23 24 25 26 32 33 35 36 37 38 39 40 41 43 47 48
0 1 2 3 5 9 11 12 14 16 19 22 23 28 29 32 36 37 38 44 46 47
0 1 5 9 12 13 14 15 16 18 22 23 24 25 26 27 33 36 38 42 43 46 47 48
2 4 5 7 11 13 15 18 19 20 21 29 30 31 34 36 48
0 1 4 5 6 8 9 10 11 12 18 19 20 21 26 27 28 29 30 31 32 33 34 36 38 40 43 45 47
1 2 6 7 10 13 15 18 19 21 25 28 29 30 31 32 38 39 40 41 44 45 46 48
0 2 3 5 6 7 8 12 13 14 16 18 19 21 24 26 27 30 31 32 34 37 38 40 41 48
1 2 11 12 16 18 19 21 23 25 27 29 30 32 33 36 40 41 43 44 47
3 4 13 14 15 21 23 25 26 29 31 32 33 36 37 39 42 44 48
4 6 7 10 14 16 20 23 24 32 33 41 42 43 44 45 48
3 4 5 7 8 11 13 14 15 16 17 18 20 22 23 24 26 27 30 31 36 37 39 42 43 44
0 2 6 7 8 12 13 14 18 22 23 24 25 26 29 31 32 33 34 36 37 38 42 44 45 46 48
5 8 9 12 14 17 18 22 23 24 25 27 29 30 33 37 46 47 48
0 6 11 14 15 18 19 20 23 24 25 26 27 28 30 33 35 39 40 43
0 4 5 6 13 14 15 17 18 19 21 23 26 27 28 30 31 32 34 41 43 44 45 47
0 3 5 11 12 14 16 22 23 25 30 33 36 37 38 40 43 44 47 48
2 3 4 8 9 11 12 14 17 19 32 37 40 43 44 45 47
2 5 7 8 9 12 15 16 19 20 21 22 23 26 27 29 30 34 38 46 47
5 7 8 10 14 15 19 20 25 27 29 30 31 34 35 38 39 40 42 44 45 48
0 1 4 6 7 13 15 17 19 20 21 23 24 25 30 34 36 37 39 41 45 46 47 48
0 1 5 7 8 9 12 13 14 15 17 18 19 24 27 29 32 37 38 41 44 45
0 2 3 4 5 6 7 11 12 13 19 23 24 25 26 32 34 35 37 47
0 10 12 17 19 24 25 26 28 33 38 39 44 47 48
0 1 6 7 9 10 15 16 17 21 27 28 29 30 37 43 46 47
2 3 4 7 8 9 12 19 21 23 26 28 29 32 33 34 35 42 44 46
2 3 6 10 12 13 14 16 17 20 24 26 27 28 29 30 33 34 35 37 39 41 43 46
2 3 5 6 7 10 12 14 16 23 24 28 30 33 35 37 38 39 47 48
0 2 4 10 12 15 17 18 20 21 24 30 31 36 38 42 43 44 47 48
0 1 9 10 12 13 16 19 20 21 23 26 31 33 34 35 36 38 40 41 42 45 46 48
0 2 3 6 8 10 12 14 17 19 21 22 24 25 27 28 30 31 34 37 38 41 45 46 47
